NAME : mtspf.pid27635.gtsp.187904919.tour
COMMENT : Length = 187904919
COMMENT : Found by LKH [Keld Helsgaun] Sun Jan  5 05:40:48 2025
TYPE : TOUR
DIMENSION : 95
TOUR_SECTION
1
68
69
70
71
41
42
43
40
14
15
72
73
74
75
6
45
46
47
44
22
23
20
21
64
65
66
67
76
77
78
79
12
35
32
33
34
27
24
25
26
9
81
82
83
80
10
11
50
51
48
49
2
91
88
89
90
3
4
5
56
57
58
59
37
38
39
36
13
19
16
17
18
84
85
86
87
53
54
55
52
30
31
28
29
93
94
95
92
7
8
61
62
63
60
-1
EOF
